&bands
prefix  = "Si",
outdir = "tmp/"
/
