 &control
    calculation='bands'
    prefix='Si'
    pseudo_dir = '.',
    outdir='tmp/',
 /
 &system
    ibrav =  2,
    celldm(1) = 10.20,
    nat =  2,
    ntyp = 1,
    ecutwfc = 18.0,
    nbnd = 8,
 /
 &electrons
 /
ATOMIC_SPECIES
 Si  28.086  Si.pz-vbc.UPF
ATOMIC_POSITIONS alat
 Si 0.00 0.00 0.00
 Si 0.25 0.25 0.25
K_POINTS {crystal_b}
5
  0.00000  0.00000  0.00000    20
  0.00000  0.50000  0.50000    20
  0.25000  0.62500  0.62500    20
  0.37500  0.7500   0.37500    20
  0.00000  0.00000  0.00000    0